c numero: 22
c nombre: n-30-d-0.5
c densidad: 0.5
p edges 30 221
e 1 2
e 1 3
e 1 4
e 1 5
e 1 7
e 1 9
e 1 10
e 1 11
e 1 12
e 1 13
e 1 14
e 1 16
e 1 17
e 1 18
e 1 19
e 1 20
e 1 21
e 1 23
e 1 26
e 1 27
e 1 28
e 1 29
e 2 3
e 2 10
e 2 13
e 2 16
e 2 17
e 2 20
e 2 24
e 2 26
e 2 28
e 2 29
e 2 30
e 3 7
e 3 8
e 3 11
e 3 13
e 3 15
e 3 16
e 3 18
e 3 19
e 3 20
e 3 21
e 3 22
e 4 7
e 4 10
e 4 14
e 4 18
e 4 19
e 4 22
e 4 23
e 4 25
e 4 28
e 5 6
e 5 7
e 5 10
e 5 11
e 5 14
e 5 15
e 5 18
e 5 19
e 5 21
e 5 22
e 5 23
e 5 24
e 5 26
e 5 29
e 6 7
e 6 8
e 6 10
e 6 12
e 6 13
e 6 15
e 6 16
e 6 17
e 6 24
e 6 25
e 6 27
e 6 28
e 6 29
e 7 8
e 7 11
e 7 13
e 7 14
e 7 18
e 7 19
e 7 20
e 7 22
e 7 23
e 7 25
e 7 27
e 7 28
e 7 30
e 8 9
e 8 10
e 8 11
e 8 12
e 8 13
e 8 14
e 8 15
e 8 16
e 8 18
e 8 19
e 8 24
e 8 25
e 8 27
e 8 28
e 9 11
e 9 13
e 9 16
e 9 21
e 9 23
e 9 24
e 9 26
e 9 28
e 9 29
e 10 14
e 10 15
e 10 16
e 10 18
e 10 19
e 10 22
e 10 23
e 10 25
e 10 27
e 11 16
e 11 18
e 11 19
e 11 23
e 11 26
e 11 30
e 12 13
e 12 16
e 12 19
e 12 21
e 12 22
e 12 24
e 12 30
e 13 14
e 13 15
e 13 16
e 13 19
e 13 20
e 13 21
e 13 23
e 13 24
e 13 26
e 13 27
e 13 28
e 13 29
e 14 15
e 14 16
e 14 19
e 14 20
e 14 21
e 14 22
e 14 23
e 14 25
e 14 26
e 14 29
e 15 17
e 15 19
e 15 21
e 15 24
e 15 28
e 15 29
e 15 30
e 16 17
e 16 18
e 16 19
e 16 21
e 16 23
e 16 26
e 16 27
e 16 29
e 17 19
e 17 24
e 17 27
e 17 28
e 17 30
e 18 19
e 18 21
e 18 22
e 18 24
e 18 27
e 18 28
e 18 30
e 19 20
e 19 21
e 19 22
e 19 24
e 19 25
e 19 27
e 19 30
e 20 21
e 20 22
e 20 24
e 20 25
e 20 26
e 20 28
e 20 29
e 20 30
e 21 24
e 21 28
e 22 23
e 22 24
e 22 28
e 23 28
e 23 30
e 24 25
e 24 26
e 24 28
e 24 30
e 25 27
e 25 30
e 26 27
e 26 29
e 26 30
e 27 28
e 28 29
e 29 30
